networks/zoo_30_210/zoo_30_210-lower.txt
Number of groups: 15
Flow 2: {1 4 0} {4 6 1} {6 3 2} {3 18 3} 
Flow 6: {6 7 0} {7 22 1} 
Flow 8: {7 9 0} {9 24 1} 
Flow 11: {13 12 0} {12 27 1} 
Flow 17: {2 3 0} {3 6 1} {6 4 2} {4 19 3} 
Flow 29: {3 2 0} {2 5 1} {5 1 2} {1 16 3} 
Flow 44: {4 1 0} {1 5 1} {5 2 2} {2 17 3} 
Flow 46: {5 20 0} 
Flow 94: {9 8 0} {8 10 1} {10 11 2} {11 26 3} 
Flow 139: {11 12 0} {12 13 1} {13 14 2} {14 29 3} 
Flow 140: {8 9 0} {9 7 1} {7 6 2} {6 15 3} {15 30 4} 
Flow 188: {14 15 0} {15 6 1} {6 21 2} 
Flow 190: {10 8 0} {8 23 1} 
Flow 192: {12 11 0} {11 10 1} {10 25 2} 
Flow 209: {15 14 0} {14 13 1} {13 28 2} 
Time taken running everything: 0 seconds
