networks/zoo_30_210/zoo_30_210-lower.sol
<?xml version = "1.0" encoding="UTF-8" standalone="yes"?>
<CPLEXSolution version="1.2">
 <header
   problemName="networks/zoo_30_210/zoo_30_210-lower.lp"
   solutionName="incumbent"
   solutionIndex="-1"
   objectiveValue="15"
   solutionTypeValue="3"
   solutionTypeString="primal"
   solutionStatusValue="101"
   solutionStatusString="integer optimal solution"
   solutionMethodString="mip"
   primalFeasible="1"
   dualFeasible="1"
   MIPNodes="0"
   MIPIterations="0"
   writeLevel="3"/>
 <quality
   epInt="1.0000000000000001e-05"
   epRHS="9.9999999999999995e-07"
   maxIntInfeas="0"
   maxPrimalInfeas="0"
   maxX="1"
   maxSlack="1"/>
 <variables>
  <variable name="Y(1,2)" index="1" value="1"/>
  <variable name="Y(2,3)" index="32" value="1"/>
  <variable name="Y(3,4)" index="63" value="1"/>
  <variable name="Y(4,5)" index="94" value="1"/>
  <variable name="Y(5,6)" index="125" value="1"/>
  <variable name="Y(6,7)" index="156" value="1"/>
  <variable name="Y(7,8)" index="187" value="1"/>
  <variable name="Y(8,9)" index="218" value="1"/>
  <variable name="Y(9,10)" index="249" value="1"/>
  <variable name="Y(10,11)" index="280" value="1"/>
  <variable name="Y(11,12)" index="311" value="1"/>
  <variable name="Y(12,13)" index="342" value="1"/>
  <variable name="Y(13,14)" index="373" value="1"/>
  <variable name="Y(14,15)" index="404" value="1"/>
  <variable name="Y(15,1)" index="420" value="1"/>
  <variable name="X(1,4,2)" index="6301" value="1"/>
  <variable name="X(1,5,1)" index="6510" value="1"/>
  <variable name="X(1,16,15)" index="6734" value="1"/>
  <variable name="X(2,3,16)" index="6945" value="1"/>
  <variable name="X(2,5,15)" index="7154" value="1"/>
  <variable name="X(2,17,1)" index="7350" value="1"/>
  <variable name="X(3,2,29)" index="7588" value="1"/>
  <variable name="X(3,6,17)" index="7786" value="1"/>
  <variable name="X(3,18,2)" index="7981" value="1"/>
  <variable name="X(4,1,43)" index="8232" value="1"/>
  <variable name="X(4,6,2)" index="8401" value="1"/>
  <variable name="X(4,19,3)" index="8612" value="1"/>
  <variable name="X(5,1,15)" index="8834" value="1"/>
  <variable name="X(5,2,1)" index="9030" value="1"/>
  <variable name="X(5,20,4)" index="9243" value="1"/>
  <variable name="X(6,3,2)" index="9451" value="1"/>
  <variable name="X(6,4,17)" index="9676" value="1"/>
  <variable name="X(6,7,6)" index="9875" value="1"/>
  <variable name="X(6,15,10)" index="10089" value="1"/>
  <variable name="X(6,21,5)" index="10294" value="1"/>
  <variable name="X(7,6,85)" index="10584" value="1"/>
  <variable name="X(7,9,7)" index="10716" value="1"/>
  <variable name="X(7,22,6)" index="10925" value="1"/>
  <variable name="X(8,9,99)" index="11228" value="1"/>
  <variable name="X(8,10,9)" index="11348" value="1"/>
  <variable name="X(8,23,7)" index="11556" value="1"/>
  <variable name="X(9,7,99)" index="11858" value="1"/>
  <variable name="X(9,8,7)" index="11976" value="1"/>
  <variable name="X(9,24,8)" index="12187" value="1"/>
  <variable name="X(10,8,127)" index="12516" value="1"/>
  <variable name="X(10,11,94)" index="12693" value="1"/>
  <variable name="X(10,25,9)" index="12818" value="1"/>
  <variable name="X(11,10,141)" index="13160" value="1"/>
  <variable name="X(11,12,109)" index="13338" value="1"/>
  <variable name="X(11,26,10)" index="13449" value="1"/>
  <variable name="X(12,11,10)" index="13659" value="1"/>
  <variable name="X(12,13,110)" index="13969" value="1"/>
  <variable name="X(12,27,11)" index="14080" value="1"/>
  <variable name="X(13,12,10)" index="14289" value="1"/>
  <variable name="X(13,14,139)" index="14628" value="1"/>
  <variable name="X(13,28,12)" index="14711" value="1"/>
  <variable name="X(14,13,10)" index="14919" value="1"/>
  <variable name="X(14,15,154)" index="15273" value="1"/>
  <variable name="X(14,29,13)" index="15342" value="1"/>
  <variable name="X(15,6,155)" index="15694" value="1"/>
  <variable name="X(15,14,10)" index="15759" value="1"/>
  <variable name="X(15,30,14)" index="15973" value="1"/>
 </variables>
</CPLEXSolution>
